NAME: tsp15_20
COMMENT: 15-tsp problem (Padberg/Rinaldi)
TYPE: TSP
DIMENSION: 15
EDGE_WEIGHT_TYPE : EUC_2D
NODE_COORD_SECTION
1 39 20
2 8 1
3 24 36
4 2 25
5 13 7
6 36 22
7 29 2
8 17 14
9 8 37
10 22 6
11 6 25
12 36 21
13 29 15
14 1 36
15 22 35
